pixelwidth = 994 ;
maxconfig = 13 ;
rows = 34 ;
cols = 5 ;
width = array3d(ROWS,COLS,CONFIGS, [
  33,-1,-1,-1,-1,-1,-1,-1,-1,-1,-1,-1,-1,
  165,127,-1,-1,-1,-1,-1,-1,-1,-1,-1,-1,-1,
  118,-1,-1,-1,-1,-1,-1,-1,-1,-1,-1,-1,-1,
  147,138,-1,-1,-1,-1,-1,-1,-1,-1,-1,-1,-1,
  110,-1,-1,-1,-1,-1,-1,-1,-1,-1,-1,-1,-1,
  33,-1,-1,-1,-1,-1,-1,-1,-1,-1,-1,-1,-1,
  127,-1,-1,-1,-1,-1,-1,-1,-1,-1,-1,-1,-1,
  118,-1,-1,-1,-1,-1,-1,-1,-1,-1,-1,-1,-1,
  638,323,239,174,152,146,138,-1,-1,-1,-1,-1,-1,
  164,110,-1,-1,-1,-1,-1,-1,-1,-1,-1,-1,-1,
  33,-1,-1,-1,-1,-1,-1,-1,-1,-1,-1,-1,-1,
  127,-1,-1,-1,-1,-1,-1,-1,-1,-1,-1,-1,-1,
  118,-1,-1,-1,-1,-1,-1,-1,-1,-1,-1,-1,-1,
  638,323,239,174,152,146,138,-1,-1,-1,-1,-1,-1,
  164,110,-1,-1,-1,-1,-1,-1,-1,-1,-1,-1,-1,
  33,-1,-1,-1,-1,-1,-1,-1,-1,-1,-1,-1,-1,
  127,-1,-1,-1,-1,-1,-1,-1,-1,-1,-1,-1,-1,
  120,118,-1,-1,-1,-1,-1,-1,-1,-1,-1,-1,-1,
  1068,571,390,295,255,207,169,167,146,141,138,-1,-1,
  164,110,-1,-1,-1,-1,-1,-1,-1,-1,-1,-1,-1,
  33,-1,-1,-1,-1,-1,-1,-1,-1,-1,-1,-1,-1,
  173,127,-1,-1,-1,-1,-1,-1,-1,-1,-1,-1,-1,
  118,-1,-1,-1,-1,-1,-1,-1,-1,-1,-1,-1,-1,
  1022,520,358,281,242,212,186,152,142,138,-1,-1,-1,
  121,110,-1,-1,-1,-1,-1,-1,-1,-1,-1,-1,-1,
  33,-1,-1,-1,-1,-1,-1,-1,-1,-1,-1,-1,-1,
  127,-1,-1,-1,-1,-1,-1,-1,-1,-1,-1,-1,-1,
  118,-1,-1,-1,-1,-1,-1,-1,-1,-1,-1,-1,-1,
  138,-1,-1,-1,-1,-1,-1,-1,-1,-1,-1,-1,-1,
  124,110,-1,-1,-1,-1,-1,-1,-1,-1,-1,-1,-1,
  33,-1,-1,-1,-1,-1,-1,-1,-1,-1,-1,-1,-1,
  127,-1,-1,-1,-1,-1,-1,-1,-1,-1,-1,-1,-1,
  118,-1,-1,-1,-1,-1,-1,-1,-1,-1,-1,-1,-1,
  248,140,138,-1,-1,-1,-1,-1,-1,-1,-1,-1,-1,
  124,110,-1,-1,-1,-1,-1,-1,-1,-1,-1,-1,-1,
  33,-1,-1,-1,-1,-1,-1,-1,-1,-1,-1,-1,-1,
  127,-1,-1,-1,-1,-1,-1,-1,-1,-1,-1,-1,-1,
  265,141,120,118,-1,-1,-1,-1,-1,-1,-1,-1,-1,
  343,183,138,-1,-1,-1,-1,-1,-1,-1,-1,-1,-1,
  133,110,-1,-1,-1,-1,-1,-1,-1,-1,-1,-1,-1,
  33,-1,-1,-1,-1,-1,-1,-1,-1,-1,-1,-1,-1,
  127,-1,-1,-1,-1,-1,-1,-1,-1,-1,-1,-1,-1,
  118,-1,-1,-1,-1,-1,-1,-1,-1,-1,-1,-1,-1,
  306,180,138,-1,-1,-1,-1,-1,-1,-1,-1,-1,-1,
  124,110,-1,-1,-1,-1,-1,-1,-1,-1,-1,-1,-1,
  33,-1,-1,-1,-1,-1,-1,-1,-1,-1,-1,-1,-1,
  173,127,-1,-1,-1,-1,-1,-1,-1,-1,-1,-1,-1,
  118,-1,-1,-1,-1,-1,-1,-1,-1,-1,-1,-1,-1,
  583,310,212,163,153,138,-1,-1,-1,-1,-1,-1,-1,
  664,339,257,192,146,145,138,124,110,-1,-1,-1,-1,
  33,-1,-1,-1,-1,-1,-1,-1,-1,-1,-1,-1,-1,
  127,-1,-1,-1,-1,-1,-1,-1,-1,-1,-1,-1,-1,
  118,-1,-1,-1,-1,-1,-1,-1,-1,-1,-1,-1,-1,
  804,413,284,216,203,150,145,138,-1,-1,-1,-1,-1,
  553,304,197,177,129,127,124,110,-1,-1,-1,-1,-1,
  33,-1,-1,-1,-1,-1,-1,-1,-1,-1,-1,-1,-1,
  127,-1,-1,-1,-1,-1,-1,-1,-1,-1,-1,-1,-1,
  118,-1,-1,-1,-1,-1,-1,-1,-1,-1,-1,-1,-1,
  574,294,204,157,147,138,-1,-1,-1,-1,-1,-1,-1,
  290,150,131,110,-1,-1,-1,-1,-1,-1,-1,-1,-1,
  33,-1,-1,-1,-1,-1,-1,-1,-1,-1,-1,-1,-1,
  127,-1,-1,-1,-1,-1,-1,-1,-1,-1,-1,-1,-1,
  118,-1,-1,-1,-1,-1,-1,-1,-1,-1,-1,-1,-1,
  610,311,227,170,150,138,-1,-1,-1,-1,-1,-1,-1,
  124,110,-1,-1,-1,-1,-1,-1,-1,-1,-1,-1,-1,
  33,-1,-1,-1,-1,-1,-1,-1,-1,-1,-1,-1,-1,
  127,-1,-1,-1,-1,-1,-1,-1,-1,-1,-1,-1,-1,
  118,-1,-1,-1,-1,-1,-1,-1,-1,-1,-1,-1,-1,
  313,169,138,-1,-1,-1,-1,-1,-1,-1,-1,-1,-1,
  535,277,206,150,124,120,110,-1,-1,-1,-1,-1,-1,
  33,-1,-1,-1,-1,-1,-1,-1,-1,-1,-1,-1,-1,
  173,127,-1,-1,-1,-1,-1,-1,-1,-1,-1,-1,-1,
  118,-1,-1,-1,-1,-1,-1,-1,-1,-1,-1,-1,-1,
  989,511,357,269,229,209,163,158,147,138,-1,-1,-1,
  124,110,-1,-1,-1,-1,-1,-1,-1,-1,-1,-1,-1,
  33,-1,-1,-1,-1,-1,-1,-1,-1,-1,-1,-1,-1,
  173,127,-1,-1,-1,-1,-1,-1,-1,-1,-1,-1,-1,
  118,-1,-1,-1,-1,-1,-1,-1,-1,-1,-1,-1,-1,
  532,291,195,167,138,-1,-1,-1,-1,-1,-1,-1,-1,
  124,110,-1,-1,-1,-1,-1,-1,-1,-1,-1,-1,-1,
  33,-1,-1,-1,-1,-1,-1,-1,-1,-1,-1,-1,-1,
  127,-1,-1,-1,-1,-1,-1,-1,-1,-1,-1,-1,-1,
  118,-1,-1,-1,-1,-1,-1,-1,-1,-1,-1,-1,-1,
  159,138,-1,-1,-1,-1,-1,-1,-1,-1,-1,-1,-1,
  124,110,-1,-1,-1,-1,-1,-1,-1,-1,-1,-1,-1,
  33,-1,-1,-1,-1,-1,-1,-1,-1,-1,-1,-1,-1,
  127,-1,-1,-1,-1,-1,-1,-1,-1,-1,-1,-1,-1,
  118,-1,-1,-1,-1,-1,-1,-1,-1,-1,-1,-1,-1,
  546,284,216,151,138,-1,-1,-1,-1,-1,-1,-1,-1,
  120,110,-1,-1,-1,-1,-1,-1,-1,-1,-1,-1,-1,
  33,-1,-1,-1,-1,-1,-1,-1,-1,-1,-1,-1,-1,
  127,-1,-1,-1,-1,-1,-1,-1,-1,-1,-1,-1,-1,
  118,-1,-1,-1,-1,-1,-1,-1,-1,-1,-1,-1,-1,
  944,482,329,274,220,186,171,161,150,138,-1,-1,-1,
  124,110,-1,-1,-1,-1,-1,-1,-1,-1,-1,-1,-1,
  33,-1,-1,-1,-1,-1,-1,-1,-1,-1,-1,-1,-1,
  127,-1,-1,-1,-1,-1,-1,-1,-1,-1,-1,-1,-1,
  118,-1,-1,-1,-1,-1,-1,-1,-1,-1,-1,-1,-1,
  866,456,313,244,200,186,155,142,138,-1,-1,-1,-1,
  120,110,-1,-1,-1,-1,-1,-1,-1,-1,-1,-1,-1,
  33,-1,-1,-1,-1,-1,-1,-1,-1,-1,-1,-1,-1,
  127,-1,-1,-1,-1,-1,-1,-1,-1,-1,-1,-1,-1,
  118,-1,-1,-1,-1,-1,-1,-1,-1,-1,-1,-1,-1,
  159,138,-1,-1,-1,-1,-1,-1,-1,-1,-1,-1,-1,
  120,110,-1,-1,-1,-1,-1,-1,-1,-1,-1,-1,-1,
  33,-1,-1,-1,-1,-1,-1,-1,-1,-1,-1,-1,-1,
  127,-1,-1,-1,-1,-1,-1,-1,-1,-1,-1,-1,-1,
  118,-1,-1,-1,-1,-1,-1,-1,-1,-1,-1,-1,-1,
  504,261,198,138,-1,-1,-1,-1,-1,-1,-1,-1,-1,
  120,110,-1,-1,-1,-1,-1,-1,-1,-1,-1,-1,-1,
  33,-1,-1,-1,-1,-1,-1,-1,-1,-1,-1,-1,-1,
  127,-1,-1,-1,-1,-1,-1,-1,-1,-1,-1,-1,-1,
  118,-1,-1,-1,-1,-1,-1,-1,-1,-1,-1,-1,-1,
  1275,655,445,346,289,257,239,207,178,160,155,145,138,
  120,110,-1,-1,-1,-1,-1,-1,-1,-1,-1,-1,-1,
  33,-1,-1,-1,-1,-1,-1,-1,-1,-1,-1,-1,-1,
  127,-1,-1,-1,-1,-1,-1,-1,-1,-1,-1,-1,-1,
  118,-1,-1,-1,-1,-1,-1,-1,-1,-1,-1,-1,-1,
  546,292,213,172,150,138,-1,-1,-1,-1,-1,-1,-1,
  120,110,-1,-1,-1,-1,-1,-1,-1,-1,-1,-1,-1,
  33,-1,-1,-1,-1,-1,-1,-1,-1,-1,-1,-1,-1,
  127,-1,-1,-1,-1,-1,-1,-1,-1,-1,-1,-1,-1,
  118,-1,-1,-1,-1,-1,-1,-1,-1,-1,-1,-1,-1,
  569,288,211,176,150,138,-1,-1,-1,-1,-1,-1,-1,
  110,-1,-1,-1,-1,-1,-1,-1,-1,-1,-1,-1,-1,
  33,-1,-1,-1,-1,-1,-1,-1,-1,-1,-1,-1,-1,
  127,-1,-1,-1,-1,-1,-1,-1,-1,-1,-1,-1,-1,
  118,-1,-1,-1,-1,-1,-1,-1,-1,-1,-1,-1,-1,
  378,194,138,-1,-1,-1,-1,-1,-1,-1,-1,-1,-1,
  110,-1,-1,-1,-1,-1,-1,-1,-1,-1,-1,-1,-1,
  33,-1,-1,-1,-1,-1,-1,-1,-1,-1,-1,-1,-1,
  127,-1,-1,-1,-1,-1,-1,-1,-1,-1,-1,-1,-1,
  118,-1,-1,-1,-1,-1,-1,-1,-1,-1,-1,-1,-1,
  897,468,309,253,217,177,155,143,138,-1,-1,-1,-1,
  110,-1,-1,-1,-1,-1,-1,-1,-1,-1,-1,-1,-1,
  33,-1,-1,-1,-1,-1,-1,-1,-1,-1,-1,-1,-1,
  209,127,-1,-1,-1,-1,-1,-1,-1,-1,-1,-1,-1,
  118,-1,-1,-1,-1,-1,-1,-1,-1,-1,-1,-1,-1,
  334,192,138,-1,-1,-1,-1,-1,-1,-1,-1,-1,-1,
  110,-1,-1,-1,-1,-1,-1,-1,-1,-1,-1,-1,-1,
  33,-1,-1,-1,-1,-1,-1,-1,-1,-1,-1,-1,-1,
  162,127,-1,-1,-1,-1,-1,-1,-1,-1,-1,-1,-1,
  118,-1,-1,-1,-1,-1,-1,-1,-1,-1,-1,-1,-1,
  546,291,225,157,140,138,-1,-1,-1,-1,-1,-1,-1,
  169,110,-1,-1,-1,-1,-1,-1,-1,-1,-1,-1,-1,
  33,-1,-1,-1,-1,-1,-1,-1,-1,-1,-1,-1,-1,
  127,-1,-1,-1,-1,-1,-1,-1,-1,-1,-1,-1,-1,
  118,-1,-1,-1,-1,-1,-1,-1,-1,-1,-1,-1,-1,
  977,502,364,261,219,203,175,140,138,-1,-1,-1,-1,
  120,110,-1,-1,-1,-1,-1,-1,-1,-1,-1,-1,-1,
  33,-1,-1,-1,-1,-1,-1,-1,-1,-1,-1,-1,-1,
  127,-1,-1,-1,-1,-1,-1,-1,-1,-1,-1,-1,-1,
  320,194,136,124,118,-1,-1,-1,-1,-1,-1,-1,-1,
  337,199,144,138,-1,-1,-1,-1,-1,-1,-1,-1,-1,
  110,-1,-1,-1,-1,-1,-1,-1,-1,-1,-1,-1,-1,
  33,-1,-1,-1,-1,-1,-1,-1,-1,-1,-1,-1,-1,
  220,127,-1,-1,-1,-1,-1,-1,-1,-1,-1,-1,-1,
  118,-1,-1,-1,-1,-1,-1,-1,-1,-1,-1,-1,-1,
  541,294,192,173,170,138,-1,-1,-1,-1,-1,-1,-1,
  155,110,-1,-1,-1,-1,-1,-1,-1,-1,-1,-1,-1,
  33,-1,-1,-1,-1,-1,-1,-1,-1,-1,-1,-1,-1,
  127,-1,-1,-1,-1,-1,-1,-1,-1,-1,-1,-1,-1,
  118,-1,-1,-1,-1,-1,-1,-1,-1,-1,-1,-1,-1,
  605,318,238,189,146,138,-1,-1,-1,-1,-1,-1,-1,
  120,110,-1,-1,-1,-1,-1,-1,-1,-1,-1,-1,-1,
  33,-1,-1,-1,-1,-1,-1,-1,-1,-1,-1,-1,-1,
  127,-1,-1,-1,-1,-1,-1,-1,-1,-1,-1,-1,-1,
  125,118,-1,-1,-1,-1,-1,-1,-1,-1,-1,-1,-1,
  393,207,170,138,-1,-1,-1,-1,-1,-1,-1,-1,-1,
  130,110,-1,-1,-1,-1,-1,-1,-1,-1,-1,-1,-1 ]);
height = array3d(ROWS,COLS,CONFIGS, [
  36,-1,-1,-1,-1,-1,-1,-1,-1,-1,-1,-1,-1,
  36,61,-1,-1,-1,-1,-1,-1,-1,-1,-1,-1,-1,
  36,-1,-1,-1,-1,-1,-1,-1,-1,-1,-1,-1,-1,
  36,61,-1,-1,-1,-1,-1,-1,-1,-1,-1,-1,-1,
  36,-1,-1,-1,-1,-1,-1,-1,-1,-1,-1,-1,-1,
  36,-1,-1,-1,-1,-1,-1,-1,-1,-1,-1,-1,-1,
  36,-1,-1,-1,-1,-1,-1,-1,-1,-1,-1,-1,-1,
  36,-1,-1,-1,-1,-1,-1,-1,-1,-1,-1,-1,-1,
  36,61,86,111,136,161,186,-1,-1,-1,-1,-1,-1,
  36,61,-1,-1,-1,-1,-1,-1,-1,-1,-1,-1,-1,
  36,-1,-1,-1,-1,-1,-1,-1,-1,-1,-1,-1,-1,
  36,-1,-1,-1,-1,-1,-1,-1,-1,-1,-1,-1,-1,
  36,-1,-1,-1,-1,-1,-1,-1,-1,-1,-1,-1,-1,
  36,61,86,111,136,161,186,-1,-1,-1,-1,-1,-1,
  36,61,-1,-1,-1,-1,-1,-1,-1,-1,-1,-1,-1,
  36,-1,-1,-1,-1,-1,-1,-1,-1,-1,-1,-1,-1,
  36,-1,-1,-1,-1,-1,-1,-1,-1,-1,-1,-1,-1,
  36,61,-1,-1,-1,-1,-1,-1,-1,-1,-1,-1,-1,
  36,61,86,111,136,161,186,211,236,261,286,-1,-1,
  36,61,-1,-1,-1,-1,-1,-1,-1,-1,-1,-1,-1,
  36,-1,-1,-1,-1,-1,-1,-1,-1,-1,-1,-1,-1,
  36,61,-1,-1,-1,-1,-1,-1,-1,-1,-1,-1,-1,
  36,-1,-1,-1,-1,-1,-1,-1,-1,-1,-1,-1,-1,
  36,61,86,111,136,161,186,211,236,261,-1,-1,-1,
  36,61,-1,-1,-1,-1,-1,-1,-1,-1,-1,-1,-1,
  36,-1,-1,-1,-1,-1,-1,-1,-1,-1,-1,-1,-1,
  36,-1,-1,-1,-1,-1,-1,-1,-1,-1,-1,-1,-1,
  36,-1,-1,-1,-1,-1,-1,-1,-1,-1,-1,-1,-1,
  36,-1,-1,-1,-1,-1,-1,-1,-1,-1,-1,-1,-1,
  36,61,-1,-1,-1,-1,-1,-1,-1,-1,-1,-1,-1,
  36,-1,-1,-1,-1,-1,-1,-1,-1,-1,-1,-1,-1,
  36,-1,-1,-1,-1,-1,-1,-1,-1,-1,-1,-1,-1,
  36,-1,-1,-1,-1,-1,-1,-1,-1,-1,-1,-1,-1,
  36,61,86,-1,-1,-1,-1,-1,-1,-1,-1,-1,-1,
  36,61,-1,-1,-1,-1,-1,-1,-1,-1,-1,-1,-1,
  36,-1,-1,-1,-1,-1,-1,-1,-1,-1,-1,-1,-1,
  36,-1,-1,-1,-1,-1,-1,-1,-1,-1,-1,-1,-1,
  36,61,86,111,-1,-1,-1,-1,-1,-1,-1,-1,-1,
  36,61,86,-1,-1,-1,-1,-1,-1,-1,-1,-1,-1,
  36,61,-1,-1,-1,-1,-1,-1,-1,-1,-1,-1,-1,
  36,-1,-1,-1,-1,-1,-1,-1,-1,-1,-1,-1,-1,
  36,-1,-1,-1,-1,-1,-1,-1,-1,-1,-1,-1,-1,
  36,-1,-1,-1,-1,-1,-1,-1,-1,-1,-1,-1,-1,
  36,61,86,-1,-1,-1,-1,-1,-1,-1,-1,-1,-1,
  36,61,-1,-1,-1,-1,-1,-1,-1,-1,-1,-1,-1,
  36,-1,-1,-1,-1,-1,-1,-1,-1,-1,-1,-1,-1,
  36,61,-1,-1,-1,-1,-1,-1,-1,-1,-1,-1,-1,
  36,-1,-1,-1,-1,-1,-1,-1,-1,-1,-1,-1,-1,
  36,61,86,111,136,161,-1,-1,-1,-1,-1,-1,-1,
  36,61,86,111,136,161,186,211,236,-1,-1,-1,-1,
  36,-1,-1,-1,-1,-1,-1,-1,-1,-1,-1,-1,-1,
  36,-1,-1,-1,-1,-1,-1,-1,-1,-1,-1,-1,-1,
  36,-1,-1,-1,-1,-1,-1,-1,-1,-1,-1,-1,-1,
  36,61,86,111,136,161,186,211,-1,-1,-1,-1,-1,
  36,61,86,111,136,161,186,211,-1,-1,-1,-1,-1,
  36,-1,-1,-1,-1,-1,-1,-1,-1,-1,-1,-1,-1,
  36,-1,-1,-1,-1,-1,-1,-1,-1,-1,-1,-1,-1,
  36,-1,-1,-1,-1,-1,-1,-1,-1,-1,-1,-1,-1,
  36,61,86,111,136,161,-1,-1,-1,-1,-1,-1,-1,
  36,61,86,111,-1,-1,-1,-1,-1,-1,-1,-1,-1,
  36,-1,-1,-1,-1,-1,-1,-1,-1,-1,-1,-1,-1,
  36,-1,-1,-1,-1,-1,-1,-1,-1,-1,-1,-1,-1,
  36,-1,-1,-1,-1,-1,-1,-1,-1,-1,-1,-1,-1,
  36,61,86,111,136,161,-1,-1,-1,-1,-1,-1,-1,
  36,61,-1,-1,-1,-1,-1,-1,-1,-1,-1,-1,-1,
  36,-1,-1,-1,-1,-1,-1,-1,-1,-1,-1,-1,-1,
  36,-1,-1,-1,-1,-1,-1,-1,-1,-1,-1,-1,-1,
  36,-1,-1,-1,-1,-1,-1,-1,-1,-1,-1,-1,-1,
  36,61,86,-1,-1,-1,-1,-1,-1,-1,-1,-1,-1,
  36,61,86,111,136,161,186,-1,-1,-1,-1,-1,-1,
  36,-1,-1,-1,-1,-1,-1,-1,-1,-1,-1,-1,-1,
  36,61,-1,-1,-1,-1,-1,-1,-1,-1,-1,-1,-1,
  36,-1,-1,-1,-1,-1,-1,-1,-1,-1,-1,-1,-1,
  36,61,86,111,136,161,186,211,236,261,-1,-1,-1,
  36,61,-1,-1,-1,-1,-1,-1,-1,-1,-1,-1,-1,
  36,-1,-1,-1,-1,-1,-1,-1,-1,-1,-1,-1,-1,
  36,61,-1,-1,-1,-1,-1,-1,-1,-1,-1,-1,-1,
  36,-1,-1,-1,-1,-1,-1,-1,-1,-1,-1,-1,-1,
  36,61,86,111,136,-1,-1,-1,-1,-1,-1,-1,-1,
  36,61,-1,-1,-1,-1,-1,-1,-1,-1,-1,-1,-1,
  36,-1,-1,-1,-1,-1,-1,-1,-1,-1,-1,-1,-1,
  36,-1,-1,-1,-1,-1,-1,-1,-1,-1,-1,-1,-1,
  36,-1,-1,-1,-1,-1,-1,-1,-1,-1,-1,-1,-1,
  36,61,-1,-1,-1,-1,-1,-1,-1,-1,-1,-1,-1,
  36,61,-1,-1,-1,-1,-1,-1,-1,-1,-1,-1,-1,
  36,-1,-1,-1,-1,-1,-1,-1,-1,-1,-1,-1,-1,
  36,-1,-1,-1,-1,-1,-1,-1,-1,-1,-1,-1,-1,
  36,-1,-1,-1,-1,-1,-1,-1,-1,-1,-1,-1,-1,
  36,61,86,111,136,-1,-1,-1,-1,-1,-1,-1,-1,
  36,61,-1,-1,-1,-1,-1,-1,-1,-1,-1,-1,-1,
  36,-1,-1,-1,-1,-1,-1,-1,-1,-1,-1,-1,-1,
  36,-1,-1,-1,-1,-1,-1,-1,-1,-1,-1,-1,-1,
  36,-1,-1,-1,-1,-1,-1,-1,-1,-1,-1,-1,-1,
  36,61,86,111,136,161,186,211,236,261,-1,-1,-1,
  36,61,-1,-1,-1,-1,-1,-1,-1,-1,-1,-1,-1,
  36,-1,-1,-1,-1,-1,-1,-1,-1,-1,-1,-1,-1,
  36,-1,-1,-1,-1,-1,-1,-1,-1,-1,-1,-1,-1,
  36,-1,-1,-1,-1,-1,-1,-1,-1,-1,-1,-1,-1,
  36,61,86,111,136,161,186,211,236,-1,-1,-1,-1,
  36,61,-1,-1,-1,-1,-1,-1,-1,-1,-1,-1,-1,
  36,-1,-1,-1,-1,-1,-1,-1,-1,-1,-1,-1,-1,
  36,-1,-1,-1,-1,-1,-1,-1,-1,-1,-1,-1,-1,
  36,-1,-1,-1,-1,-1,-1,-1,-1,-1,-1,-1,-1,
  36,61,-1,-1,-1,-1,-1,-1,-1,-1,-1,-1,-1,
  36,61,-1,-1,-1,-1,-1,-1,-1,-1,-1,-1,-1,
  36,-1,-1,-1,-1,-1,-1,-1,-1,-1,-1,-1,-1,
  36,-1,-1,-1,-1,-1,-1,-1,-1,-1,-1,-1,-1,
  36,-1,-1,-1,-1,-1,-1,-1,-1,-1,-1,-1,-1,
  36,61,86,111,-1,-1,-1,-1,-1,-1,-1,-1,-1,
  36,61,-1,-1,-1,-1,-1,-1,-1,-1,-1,-1,-1,
  36,-1,-1,-1,-1,-1,-1,-1,-1,-1,-1,-1,-1,
  36,-1,-1,-1,-1,-1,-1,-1,-1,-1,-1,-1,-1,
  36,-1,-1,-1,-1,-1,-1,-1,-1,-1,-1,-1,-1,
  36,61,86,111,136,161,186,211,236,261,286,311,336,
  36,61,-1,-1,-1,-1,-1,-1,-1,-1,-1,-1,-1,
  36,-1,-1,-1,-1,-1,-1,-1,-1,-1,-1,-1,-1,
  36,-1,-1,-1,-1,-1,-1,-1,-1,-1,-1,-1,-1,
  36,-1,-1,-1,-1,-1,-1,-1,-1,-1,-1,-1,-1,
  36,61,86,111,136,161,-1,-1,-1,-1,-1,-1,-1,
  36,61,-1,-1,-1,-1,-1,-1,-1,-1,-1,-1,-1,
  36,-1,-1,-1,-1,-1,-1,-1,-1,-1,-1,-1,-1,
  36,-1,-1,-1,-1,-1,-1,-1,-1,-1,-1,-1,-1,
  36,-1,-1,-1,-1,-1,-1,-1,-1,-1,-1,-1,-1,
  36,61,86,111,136,161,-1,-1,-1,-1,-1,-1,-1,
  36,-1,-1,-1,-1,-1,-1,-1,-1,-1,-1,-1,-1,
  36,-1,-1,-1,-1,-1,-1,-1,-1,-1,-1,-1,-1,
  36,-1,-1,-1,-1,-1,-1,-1,-1,-1,-1,-1,-1,
  36,-1,-1,-1,-1,-1,-1,-1,-1,-1,-1,-1,-1,
  36,61,86,-1,-1,-1,-1,-1,-1,-1,-1,-1,-1,
  36,-1,-1,-1,-1,-1,-1,-1,-1,-1,-1,-1,-1,
  36,-1,-1,-1,-1,-1,-1,-1,-1,-1,-1,-1,-1,
  36,-1,-1,-1,-1,-1,-1,-1,-1,-1,-1,-1,-1,
  36,-1,-1,-1,-1,-1,-1,-1,-1,-1,-1,-1,-1,
  36,61,86,111,136,161,186,211,236,-1,-1,-1,-1,
  36,-1,-1,-1,-1,-1,-1,-1,-1,-1,-1,-1,-1,
  36,-1,-1,-1,-1,-1,-1,-1,-1,-1,-1,-1,-1,
  36,61,-1,-1,-1,-1,-1,-1,-1,-1,-1,-1,-1,
  36,-1,-1,-1,-1,-1,-1,-1,-1,-1,-1,-1,-1,
  36,61,86,-1,-1,-1,-1,-1,-1,-1,-1,-1,-1,
  36,-1,-1,-1,-1,-1,-1,-1,-1,-1,-1,-1,-1,
  36,-1,-1,-1,-1,-1,-1,-1,-1,-1,-1,-1,-1,
  36,61,-1,-1,-1,-1,-1,-1,-1,-1,-1,-1,-1,
  36,-1,-1,-1,-1,-1,-1,-1,-1,-1,-1,-1,-1,
  36,61,86,111,136,161,-1,-1,-1,-1,-1,-1,-1,
  36,61,-1,-1,-1,-1,-1,-1,-1,-1,-1,-1,-1,
  36,-1,-1,-1,-1,-1,-1,-1,-1,-1,-1,-1,-1,
  36,-1,-1,-1,-1,-1,-1,-1,-1,-1,-1,-1,-1,
  36,-1,-1,-1,-1,-1,-1,-1,-1,-1,-1,-1,-1,
  36,61,86,111,136,161,186,211,236,-1,-1,-1,-1,
  36,61,-1,-1,-1,-1,-1,-1,-1,-1,-1,-1,-1,
  36,-1,-1,-1,-1,-1,-1,-1,-1,-1,-1,-1,-1,
  36,-1,-1,-1,-1,-1,-1,-1,-1,-1,-1,-1,-1,
  36,61,86,111,136,-1,-1,-1,-1,-1,-1,-1,-1,
  36,61,86,111,-1,-1,-1,-1,-1,-1,-1,-1,-1,
  36,-1,-1,-1,-1,-1,-1,-1,-1,-1,-1,-1,-1,
  36,-1,-1,-1,-1,-1,-1,-1,-1,-1,-1,-1,-1,
  36,61,-1,-1,-1,-1,-1,-1,-1,-1,-1,-1,-1,
  36,-1,-1,-1,-1,-1,-1,-1,-1,-1,-1,-1,-1,
  36,61,86,111,136,161,-1,-1,-1,-1,-1,-1,-1,
  36,61,-1,-1,-1,-1,-1,-1,-1,-1,-1,-1,-1,
  36,-1,-1,-1,-1,-1,-1,-1,-1,-1,-1,-1,-1,
  36,-1,-1,-1,-1,-1,-1,-1,-1,-1,-1,-1,-1,
  36,-1,-1,-1,-1,-1,-1,-1,-1,-1,-1,-1,-1,
  36,61,86,111,136,186,-1,-1,-1,-1,-1,-1,-1,
  36,61,-1,-1,-1,-1,-1,-1,-1,-1,-1,-1,-1,
  36,-1,-1,-1,-1,-1,-1,-1,-1,-1,-1,-1,-1,
  36,-1,-1,-1,-1,-1,-1,-1,-1,-1,-1,-1,-1,
  36,61,-1,-1,-1,-1,-1,-1,-1,-1,-1,-1,-1,
  36,61,86,111,-1,-1,-1,-1,-1,-1,-1,-1,-1,
  36,61,-1,-1,-1,-1,-1,-1,-1,-1,-1,-1,-1 ]);
